\ Model ChooChoo
\ LP format - for model browsing. Use MPS format to capture full model detail.
\ Signature: 0x8f16bfe8898f67ad
Minimize
  22 Arc(1,2) + 6 Arc(1,5) + 22 Arc(2,1) + 2 Arc(2,3) + 3 Arc(3,4)
   + 5 Arc(3,6) + 9 Arc(4,1) + 13 Arc(4,3) + 25 Arc(5,4) + 3 Arc(5,6)
   + 9 Arc(6,2) + 17 Arc(6,5) + 0 y(2,1) + 0 y(2,3) + 0 y(3,4) + 0 y(4,1)
   + 0 y(4,3) + 0 y(5,6)
Subject To
 c1(1): Arc(1,2) + Arc(1,5) <= 1
 c1(2): Arc(2,1) + Arc(2,3) <= 1
 c1(3): Arc(3,4) + Arc(3,6) <= 1
 c1(4): Arc(4,1) + Arc(4,3) <= 1
 c1(5): Arc(5,4) + Arc(5,6) <= 1
 c1(6): Arc(6,2) + Arc(6,5) <= 1
 c1(1): Arc(1,2) + Arc(1,5) >= 1
 c1(2): Arc(2,1) + Arc(2,3) >= 1
 c1(3): Arc(3,4) + Arc(3,6) >= 1
 c1(4): Arc(4,1) + Arc(4,3) >= 1
 c1(5): Arc(5,4) + Arc(5,6) >= 1
 c1(6): Arc(6,2) + Arc(6,5) >= 1
 c2(1): Arc(1,2) + Arc(1,5) - Arc(2,1) - Arc(4,1) = 0
 c2(2): - Arc(1,2) + Arc(2,1) + Arc(2,3) - Arc(6,2) = 0
 c2(3): - Arc(2,3) + Arc(3,4) + Arc(3,6) - Arc(4,3) = 0
 c2(4): - Arc(3,4) + Arc(4,1) + Arc(4,3) - Arc(5,4) = 0
 c2(5): - Arc(1,5) + Arc(5,4) + Arc(5,6) - Arc(6,5) = 0
 c2(6): - Arc(3,6) - Arc(5,6) + Arc(6,2) + Arc(6,5) = 0
 c3(1): a(1) <= 48
 c3(2): a(2) <= 48
 c3(3): a(3) <= 48
 c3(4): a(4) <= 48
 c3(5): a(5) <= 48
 c3(6): a(6) <= 48
 c4(1): 500 y(1,2) + a(2) <= 502
 c4(2): 500 y(1,5) + a(5) <= 502
 c4(6): 500 y(3,6) + a(6) <= 502
 c4(9): 500 y(5,4) + a(4) <= 504
 c4(11): 500 y(6,2) + a(2) <= 502
 c4(12): 500 y(6,5) + a(5) <= 502
 c5(1): - 500 y(1,2) + a(2) >= -498
 c5(2): - 500 y(1,5) + a(5) >= -498
 c5(6): - 500 y(3,6) + a(6) >= -498
 c5(9): - 500 y(5,4) + a(4) >= -496
 c5(11): - 500 y(6,2) + a(2) >= -498
 c5(12): - 500 y(6,5) + a(5) >= -498
 c6(1): 500 Arc(1,2) - 500 y(1,2) - a(1) + a(2) <= 524
 c6(2): 500 Arc(1,5) - 500 y(1,5) - a(1) + a(5) <= 508
 c6(6): 500 Arc(3,6) - 500 y(3,6) - a(3) + a(6) <= 507
 c6(9): 500 Arc(5,4) - 500 y(5,4) + a(4) - a(5) <= 529
 c6(11): 500 Arc(6,2) - 500 y(6,2) + a(2) - a(6) <= 511
 c6(12): 500 Arc(6,5) - 500 y(6,5) + a(5) - a(6) <= 519
 c7(1): - 500 Arc(1,2) + 500 y(1,2) - a(1) + a(2) >= -476
 c7(2): - 500 Arc(1,5) + 500 y(1,5) - a(1) + a(5) >= -492
 c7(6): - 500 Arc(3,6) + 500 y(3,6) - a(3) + a(6) >= -493
 c7(9): - 500 Arc(5,4) + 500 y(5,4) + a(4) - a(5) >= -471
 c7(11): - 500 Arc(6,2) + 500 y(6,2) + a(2) - a(6) >= -489
 c7(12): - 500 Arc(6,5) + 500 y(6,5) + a(5) - a(6) >= -481
 c8(3): 500 Arc(2,1) + a(1) - a(2) <= 524
 c8(4): 500 Arc(2,3) - a(2) + a(3) <= 506
 c8(5): 500 Arc(3,4) - a(3) + a(4) <= 507
 c8(7): 500 Arc(4,1) + a(1) - a(4) <= 511
 c8(8): 500 Arc(4,3) + a(3) - a(4) <= 517
 c8(10): 500 Arc(5,6) - a(5) + a(6) <= 505
 c9(3): - 500 Arc(2,1) + a(1) - a(2) >= -476
 c9(4): - 500 Arc(2,3) - a(2) + a(3) >= -494
 c9(5): - 500 Arc(3,4) - a(3) + a(4) >= -493
 c9(7): - 500 Arc(4,1) + a(1) - a(4) >= -489
 c9(8): - 500 Arc(4,3) + a(3) - a(4) >= -483
 c9(10): - 500 Arc(5,6) - a(5) + a(6) >= -495
 c10(1): Arc(1,2) - y(1,2) >= 0
 c10(2): Arc(1,5) - y(1,5) >= 0
 c10(6): Arc(3,6) - y(3,6) >= 0
 c10(9): Arc(5,4) - y(5,4) >= 0
 c10(11): Arc(6,2) - y(6,2) >= 0
 c10(12): Arc(6,5) - y(6,5) >= 0
 c11(1): b(1) <= 40
 c11(2): b(2) <= 40
 c11(3): b(3) <= 40
 c11(4): b(4) <= 40
 c11(5): b(5) <= 40
 c11(6): b(6) <= 40
 c12(1): 500 y(1,2) + b(2) <= 506
 c12(2): 500 y(1,5) + b(5) <= 506
 c12(6): 500 y(3,6) + b(6) <= 506
 c12(9): 500 y(5,4) + b(4) <= 508
 c12(11): 500 y(6,2) + b(2) <= 506
 c12(12): 500 y(6,5) + b(5) <= 506
 c13(1): - 500 y(1,2) + b(2) >= -494
 c13(2): - 500 y(1,5) + b(5) >= -494
 c13(6): - 500 y(3,6) + b(6) >= -494
 c13(9): - 500 y(5,4) + b(4) >= -492
 c13(11): - 500 y(6,2) + b(2) >= -494
 c13(12): - 500 y(6,5) + b(5) >= -494
 c14(1): 500 Arc(1,2) - 500 y(1,2) - b(1) + b(2) <= 506
 c14(2): 500 Arc(1,5) - 500 y(1,5) - b(1) + b(5) <= 506
 c14(6): 500 Arc(3,6) - 500 y(3,6) - b(3) + b(6) <= 506
 c14(9): 500 Arc(5,4) - 500 y(5,4) + b(4) - b(5) <= 508
 c14(11): 500 Arc(6,2) - 500 y(6,2) + b(2) - b(6) <= 506
 c14(12): 500 Arc(6,5) - 500 y(6,5) + b(5) - b(6) <= 506
 c15(1): - 500 Arc(1,2) + 500 y(1,2) - b(1) + b(2) >= -494
 c15(2): - 500 Arc(1,5) + 500 y(1,5) - b(1) + b(5) >= -494
 c15(6): - 500 Arc(3,6) + 500 y(3,6) - b(3) + b(6) >= -494
 c15(9): - 500 Arc(5,4) + 500 y(5,4) + b(4) - b(5) >= -492
 c15(11): - 500 Arc(6,2) + 500 y(6,2) + b(2) - b(6) >= -494
 c15(12): - 500 Arc(6,5) + 500 y(6,5) + b(5) - b(6) >= -494
 c16(3): 500 Arc(2,1) + b(1) - b(2) <= 506
 c16(4): 500 Arc(2,3) - b(2) + b(3) <= 508
 c16(5): 500 Arc(3,4) - b(3) + b(4) <= 508
 c16(7): 500 Arc(4,1) + b(1) - b(4) <= 506
 c16(8): 500 Arc(4,3) + b(3) - b(4) <= 508
 c16(10): 500 Arc(5,6) - b(5) + b(6) <= 506
 c17(3): - 500 Arc(2,1) + b(1) - b(2) >= -494
 c17(4): - 500 Arc(2,3) - b(2) + b(3) >= -492
 c17(5): - 500 Arc(3,4) - b(3) + b(4) >= -492
 c17(7): - 500 Arc(4,1) + b(1) - b(4) >= -494
 c17(8): - 500 Arc(4,3) + b(3) - b(4) >= -492
 c17(10): - 500 Arc(5,6) - b(5) + b(6) >= -494
Bounds
Binaries
 Arc(1,2) Arc(1,5) Arc(2,1) Arc(2,3) Arc(3,4) Arc(3,6) Arc(4,1) Arc(4,3)
 Arc(5,4) Arc(5,6) Arc(6,2) Arc(6,5) y(1,2) y(1,5) y(2,1) y(2,3) y(3,4)
 y(3,6) y(4,1) y(4,3) y(5,4) y(5,6) y(6,2) y(6,5)
End
